(set-info :status unknown)
(declare-fun mem0 () (_ BitVec 8))
(declare-fun |ana_MaskedValueIsZero(%Y, (-1 << (log2(C1) + 1)))| () (_ BitVec 1))
(declare-fun C1 () (_ BitVec 20))
(declare-fun C2 () (_ BitVec 20))
(declare-fun %Y () (_ BitVec 20))
(assert
 (let (($x7314 (= |ana_MaskedValueIsZero(%Y, (-1 << (log2(C1) + 1)))| (_ bv1 1))))
 (let ((?x1660 (ite (and (distinct ((_ extract 2 2) C1) (_ bv0 1)) true) (_ bv2 20) (ite (and (distinct ((_ extract 1 1) C1) (_ bv0 1)) true) (_ bv1 20) (_ bv0 20)))))
 (let ((?x5659 (ite (and (distinct ((_ extract 4 3) C1) (_ bv0 2)) true) (ite (and (distinct ((_ extract 4 4) C1) (_ bv0 1)) true) (_ bv4 20) (_ bv3 20)) ?x1660)))
 (let ((?x1296 (ite (and (distinct ((_ extract 7 7) C1) (_ bv0 1)) true) (_ bv7 20) (ite (and (distinct ((_ extract 6 6) C1) (_ bv0 1)) true) (_ bv6 20) (_ bv5 20)))))
 (let ((?x5056 (ite (and (distinct ((_ extract 9 8) C1) (_ bv0 2)) true) (ite (and (distinct ((_ extract 9 9) C1) (_ bv0 1)) true) (_ bv9 20) (_ bv8 20)) ?x1296)))
 (let ((?x9503 (ite (and (distinct ((_ extract 12 12) C1) (_ bv0 1)) true) (_ bv12 20) (ite (and (distinct ((_ extract 11 11) C1) (_ bv0 1)) true) (_ bv11 20) (_ bv10 20)))))
 (let ((?x870 (ite (and (distinct ((_ extract 14 13) C1) (_ bv0 2)) true) (ite (and (distinct ((_ extract 14 14) C1) (_ bv0 1)) true) (_ bv14 20) (_ bv13 20)) ?x9503)))
 (let ((?x4946 (ite (and (distinct ((_ extract 17 17) C1) (_ bv0 1)) true) (_ bv17 20) (ite (and (distinct ((_ extract 16 16) C1) (_ bv0 1)) true) (_ bv16 20) (_ bv15 20)))))
 (let ((?x5154 (ite (and (distinct ((_ extract 19 18) C1) (_ bv0 2)) true) (ite (and (distinct ((_ extract 19 19) C1) (_ bv0 1)) true) (_ bv19 20) (_ bv18 20)) ?x4946)))
 (let ((?x3687 (ite (and (distinct ((_ extract 19 10) C1) (_ bv0 10)) true) (ite (and (distinct ((_ extract 19 15) C1) (_ bv0 5)) true) ?x5154 ?x870) (ite (and (distinct ((_ extract 9 5) C1) (_ bv0 5)) true) ?x5056 ?x5659))))
 (and (=> $x7314 (= (bvand %Y (bvshl (_ bv1048575 20) (bvadd ?x3687 (_ bv1 20)))) (_ bv0 20))) (= C2 (bvneg C1)) (and (and (distinct C1 (_ bv0 20)) true) (= (bvand C1 (bvsub C1 (_ bv1 20))) (_ bv0 20))) $x7314 (and (distinct mem0 mem0) true)))))))))))))
(check-sat)
